\ENCODING=ISO-8859-1
\Problem name: ilog.cplex

Minimize
 obj1: 93972 x1 + 105514 x2 + 108394 x3 + 104542 x4 + 96364 x5 + 105960 x6
       + 109011 x7 + 109140 x8 + 94853 x9 + 102957 x10 + 92607 x11 + 109324 x12
       + 92429 x13 + 104107 x14 + 108730 x15 + 95412 x16 + 101145 x17
       + 90570 x18 + 100160 x19 + 108447 x20 + 105392 x21 + 106461 x22
       + 90629 x23 + 95651 x24 + 96252 x25 + 91413 x26 + 90194 x27 + 91442 x28
       + 99547 x29 + 90800 x30 + 100578 x31 + 91739 x32 + 92303 x33 + 93470 x34
       + 102710 x35 + 104918 x36 + 94998 x37 + 107780 x38 + 99149 x39
       + 94057 x40 + 100258 x41 + 93305 x42 + 105202 x43 + 91988 x44
       + 92620 x45 + 97821 x46 + 94283 x47 + 93220 x48 + 108491 x49
       + 106970 x50 + 97480 x51 + 93883 x52 + 92877 x53 + 107411 x54
       + 93902 x55 + 109189 x56 + 107934 x57 + 102990 x58 + 103525 x59
       + 99678 x60 + 103047 x61 + 102711 x62 + 104472 x63 + 106826 x64
       + 92214 x65 + 94293 x66 + 107908 x67 + 108667 x68 + 98431 x69
       + 104824 x70 + 106928 x71 + 97448 x72 + 109893 x73 + 91923 x74
       + 101837 x75 + 93485 x76 + 91166 x77 + 107144 x78 + 94410 x79
       + 104541 x80 + 99148 x81 + 99855 x82 + 92163 x83 + 98015 x84 + 92460 x85
       + 90628 x86 + 97744 x87 + 101892 x88 + 97267 x89 + 104601 x90
       + 98264 x91 + 109569 x92 + 102571 x93 + 97315 x94 + 94727 x95
       + 93621 x96 + 103649 x97 + 108229 x98 + 102652 x99 + 93976 x100
       + 97151 x101 + 99711 x102 + 108573 x103 + 93485 x104 + 104894 x105
       + 94413 x106 + 103222 x107 + 97411 x108 + 102952 x109 + 97639 x110
       + 101689 x111 + 102212 x112 + 103689 x113 + 92558 x114 + 105362 x115
       + 96975 x116 + 109872 x117 + 94937 x118 + 106655 x119 + 104519 x120
       + 91186 x121 + 91946 x122 + 97408 x123 + 93129 x124 + 99907 x125
       + 96742 x126 + 97775 x127 + 97822 x128 + 97650 x129 + 91422 x130
       + 92981 x131 + 93991 x132 + 101213 x133 + 92836 x134 + 94284 x135
       + 93469 x136 + 102295 x137 + 93297 x138 + 109996 x139 + 105922 x140
       + 93203 x141 + 101326 x142 + 102617 x143 + 106887 x144 + 98675 x145
       + 96392 x146 + 98931 x147 + 97900 x148 + 92553 x149 + 95937 x150
       + 93066 x151 + 100666 x152 + 107994 x153 + 103950 x154 + 98870 x155
       + 103723 x156 + 106096 x157 + 101570 x158 + 94648 x159 + 101450 x160
       + 107661 x161 + 104397 x162 + 106185 x163 + 98333 x164 + 104482 x165
       + 99097 x166 + 94753 x167 + 97597 x168 + 104561 x169 + 94917 x170
       + 97658 x171 + 92216 x172 + 92872 x173 + 93499 x174 + 104918 x175
       + 107473 x176 + 109582 x177 + 98482 x178 + 108057 x179 + 107263 x180
       + 100984 x181 + 109234 x182 + 102014 x183 + 93354 x184 + 98798 x185
       + 107986 x186 + 101810 x187 + 104521 x188 + 109382 x189 + 105066 x190
       + 91899 x191 + 100747 x192 + 106048 x193 + 93098 x194 + 97998 x195
       + 96639 x196 + 94819 x197 + 97727 x198 + 98743 x199 + 107728 x200
       + 93510 x201 + 99139 x202 + 102084 x203 + 94505 x204 + 101901 x205
       + 99328 x206 + 101597 x207 + 90187 x208 + 101176 x209 + 109937 x210
       + 109119 x211 + 107986 x212 + 107535 x213 + 92917 x214 + 105742 x215
       + 101299 x216 + 99100 x217 + 106179 x218 + 108065 x219 + 97941 x220
       + 90469 x221 + 100453 x222 + 104116 x223 + 108637 x224 + 105849 x225
       + 106989 x226 + 104025 x227 + 99678 x228 + 93363 x229 + 94447 x230
       + 101777 x231 + 97858 x232 + 108299 x233 + 106809 x234 + 107395 x235
       + 99610 x236 + 98863 x237 + 93182 x238 + 102499 x239 + 95615 x240
       + 94418 x241 + 105118 x242 + 96423 x243 + 97214 x244 + 103274 x245
       + 107365 x246 + 94957 x247 + 101575 x248 + 94712 x249 + 96860 x250
       + 20144 x251 + 19710 x252 + 20381 x253 + 19453 x254 + 19292 x255
       + 21135 x256 + 19700 x257 + 19323 x258 + 20723 x259 + 18711 x260
       + 18613 x261 + 20258 x262 + 20705 x263 + 18860 x264 + 19451 x265
       + 20931 x266 + 20308 x267 + 18071 x268 + 21319 x269 + 20005 x270
       + 18644 x271 + 21381 x272 + 18249 x273 + 21848 x274 + 20900 x275
       + 19522 x276 + 19100 x277 + 19133 x278 + 20451 x279 + 21437 x280
       + 18071 x281 + 21957 x282 + 21367 x283 + 21825 x284 + 19904 x285
       + 20780 x286 + 19978 x287 + 20740 x288 + 18397 x289 + 20514 x290
       + 21924 x291 + 19971 x292 + 20805 x293 + 21503 x294 + 18265 x295
       + 19060 x296 + 20020 x297 + 21920 x298 + 20699 x299 + 14542 x300
Subject To
 c1:   - x18 + x30 + x39 - x49 - x50  = 1
 c2:   - x68 + x80 + x89 - x99 - x100  = 0
 c3:   - x118 + x130 + x139 - x149 - x150  = -1
 c4:   - x168 + x180 + x189 - x199 - x200  = 0
 c5:   - x218 + x230 + x239 - x249 - x250  = 0
 c6:   x1 - x7 + x11 + x15 - x16 + x17 + x44 + x45 - x48  = 0
 c7:   x51 - x57 + x61 + x65 - x66 + x67 + x94 + x95 - x98  = 0
 c8:   x101 - x107 + x111 + x115 - x116 + x117 + x144 + x145 - x148  = 0
 c9:   x151 - x157 + x161 + x165 - x166 + x167 + x194 + x195 - x198  = 1
 c10:  x201 - x207 + x211 + x215 - x216 + x217 + x244 + x245 - x248  = 0
 c11:  - x2 - x5 + x6 + x8 + x10 + x16 - x21 - x25 + x26 - x43 - x46 + x49  = 0
 c12:  - x52 - x55 + x56 + x58 + x60 + x66 - x71 - x75 + x76 - x93 - x96 + x99
        = 0
 c13:  - x102 - x105 + x106 + x108 + x110 + x116 - x121 - x125 + x126 - x143
       - x146 + x149  = 0
 c14:  - x152 - x155 + x156 + x158 + x160 + x166 - x171 - x175 + x176 - x193
       - x196 + x199  = 0
 c15:  - x202 - x205 + x206 + x208 + x210 + x216 - x221 - x225 + x226 - x243
       - x246 + x249  = 0
 c16:  - x13 + x14 + x19 + x20 - x24 - x26 + x28 + x36 - x38 - x40 + x43 - x44
       + x50  = 0
 c17:  - x63 + x64 + x69 + x70 - x74 - x76 + x78 + x86 - x88 - x90 + x93 - x94
       + x100  = 0
 c18:  - x113 + x114 + x119 + x120 - x124 - x126 + x128 + x136 - x138 - x140
       + x143 - x144 + x150  = 0
 c19:  - x163 + x164 + x169 + x170 - x174 - x176 + x178 + x186 - x188 - x190
       + x193 - x194 + x200  = 0
 c20:  - x213 + x214 + x219 + x220 - x224 - x226 + x228 + x236 - x238 - x240
       + x243 - x244 + x250  = -1
 c21:  - x1 - x4 - x8 + x13 + x25 + x27 + x31 + x34 - x41  = -1
 c22:  - x51 - x54 - x58 + x63 + x75 + x77 + x81 + x84 - x91  = 0
 c23:  - x101 - x104 - x108 + x113 + x125 + x127 + x131 + x134 - x141  = 0
 c24:  - x151 - x154 - x158 + x163 + x175 + x177 + x181 + x184 - x191  = 0
 c25:  - x201 - x204 - x208 + x213 + x225 + x227 + x231 + x234 - x241  = 1
 c26:  x5 + x18 - x19 + x23 - x27 + x29 - x33 - x35 + x37 + x40 - x45 + x48
        = 0
 c27:  x55 + x68 - x69 + x73 - x77 + x79 - x83 - x85 + x87 + x90 - x95 + x98
        = -1
 c28:  x105 + x118 - x119 + x123 - x127 + x129 - x133 - x135 + x137 + x140
       - x145 + x148  = 1
 c29:  x155 + x168 - x169 + x173 - x177 + x179 - x183 - x185 + x187 + x190
       - x195 + x198  = 0
 c30:  x205 + x218 - x219 + x223 - x227 + x229 - x233 - x235 + x237 + x240
       - x245 + x248  = 0
 c31:  - x6 - x12 - x17 - x20 - x23 - x30 - x31 - x32 + x33 + x41 + x42 + x46
       + x47  = 0
 c32:  - x56 - x62 - x67 - x70 - x73 - x80 - x81 - x82 + x83 + x91 + x92 + x96
       + x97  = 0
 c33:  - x106 - x112 - x117 - x120 - x123 - x130 - x131 - x132 + x133 + x141
       + x142 + x146 + x147  = 0
 c34:  - x156 - x162 - x167 - x170 - x173 - x180 - x181 - x182 + x183 + x191
       + x192 + x196 + x197  = 0
 c35:  - x206 - x212 - x217 - x220 - x223 - x230 - x231 - x232 + x233 + x241
       + x242 + x246 + x247  = 0
 c36:  x2 - x3 - x15 - x22 - x28 - x34  = 0
 c37:  x52 - x53 - x65 - x72 - x78 - x84  = 1
 c38:  x102 - x103 - x115 - x122 - x128 - x134  = 0
 c39:  x152 - x153 - x165 - x172 - x178 - x184  = 0
 c40:  x202 - x203 - x215 - x222 - x228 - x234  = 0
 c41:  x3 + x9 - x11 + x12 - x14 + x21 - x29 + x35 + x38 - x42  = 0
 c42:  x53 + x59 - x61 + x62 - x64 + x71 - x79 + x85 + x88 - x92  = 0
 c43:  x103 + x109 - x111 + x112 - x114 + x121 - x129 + x135 + x138 - x142  = 0
 c44:  x153 + x159 - x161 + x162 - x164 + x171 - x179 + x185 + x188 - x192
        = -1
 c45:  x203 + x209 - x211 + x212 - x214 + x221 - x229 + x235 + x238 - x242  = 0
 c46:  x4 + x7 - x9 - x10 + x22 + x24 + x32 - x36 - x37 - x39 - x47  = 0
 c47:  x54 + x57 - x59 - x60 + x72 + x74 + x82 - x86 - x87 - x89 - x97  = 0
 c48:  x104 + x107 - x109 - x110 + x122 + x124 + x132 - x136 - x137 - x139
       - x147  = 0
 c49:  x154 + x157 - x159 - x160 + x172 + x174 + x182 - x186 - x187 - x189
       - x197  = 0
 c50:  x204 + x207 - x209 - x210 + x222 + x224 + x232 - x236 - x237 - x239
       - x247  = 0
 c51:  4 x1 + 4 x51 + 4 x101 + 4 x151 + 4 x201 - 10 x251 <= 0
 c52:  4 x2 + 4 x52 + 4 x102 + 4 x152 + 4 x202 - 10 x252 <= 0
 c53:  4 x3 + 4 x53 + 4 x103 + 4 x153 + 4 x203 - 9 x253 <= 0
 c54:  4 x4 + 4 x54 + 4 x104 + 4 x154 + 4 x204 - 9 x254 <= 0
 c55:  4 x5 + 4 x55 + 4 x105 + 4 x155 + 4 x205 - 10 x255 <= 0
 c56:  4 x6 + 4 x56 + 4 x106 + 4 x156 + 4 x206 - 10 x256 <= 0
 c57:  4 x7 + 4 x57 + 4 x107 + 4 x157 + 4 x207 - 10 x257 <= 0
 c58:  4 x8 + 4 x58 + 4 x108 + 4 x158 + 4 x208 - 11 x258 <= 0
 c59:  4 x9 + 4 x59 + 4 x109 + 4 x159 + 4 x209 - 9 x259 <= 0
 c60:  4 x10 + 4 x60 + 4 x110 + 4 x160 + 4 x210 - 11 x260 <= 0
 c61:  4 x11 + 4 x61 + 4 x111 + 4 x161 + 4 x211 - 11 x261 <= 0
 c62:  4 x12 + 4 x62 + 4 x112 + 4 x162 + 4 x212 - 10 x262 <= 0
 c63:  4 x13 + 4 x63 + 4 x113 + 4 x163 + 4 x213 - 11 x263 <= 0
 c64:  4 x14 + 4 x64 + 4 x114 + 4 x164 + 4 x214 - 10 x264 <= 0
 c65:  4 x15 + 4 x65 + 4 x115 + 4 x165 + 4 x215 - 11 x265 <= 0
 c66:  4 x16 + 4 x66 + 4 x116 + 4 x166 + 4 x216 - 10 x266 <= 0
 c67:  4 x17 + 4 x67 + 4 x117 + 4 x167 + 4 x217 - 11 x267 <= 0
 c68:  4 x18 + 4 x68 + 4 x118 + 4 x168 + 4 x218 - 11 x268 <= 0
 c69:  4 x19 + 4 x69 + 4 x119 + 4 x169 + 4 x219 - 11 x269 <= 0
 c70:  4 x20 + 4 x70 + 4 x120 + 4 x170 + 4 x220 - 11 x270 <= 0
 c71:  4 x21 + 4 x71 + 4 x121 + 4 x171 + 4 x221 - 10 x271 <= 0
 c72:  4 x22 + 4 x72 + 4 x122 + 4 x172 + 4 x222 - 10 x272 <= 0
 c73:  4 x23 + 4 x73 + 4 x123 + 4 x173 + 4 x223 - 10 x273 <= 0
 c74:  4 x24 + 4 x74 + 4 x124 + 4 x174 + 4 x224 - 11 x274 <= 0
 c75:  4 x25 + 4 x75 + 4 x125 + 4 x175 + 4 x225 - 10 x275 <= 0
 c76:  4 x26 + 4 x76 + 4 x126 + 4 x176 + 4 x226 - 11 x276 <= 0
 c77:  4 x27 + 4 x77 + 4 x127 + 4 x177 + 4 x227 - 9 x277 <= 0
 c78:  4 x28 + 4 x78 + 4 x128 + 4 x178 + 4 x228 - 10 x278 <= 0
 c79:  4 x29 + 4 x79 + 4 x129 + 4 x179 + 4 x229 - 10 x279 <= 0
 c80:  4 x30 + 4 x80 + 4 x130 + 4 x180 + 4 x230 - 9 x280 <= 0
 c81:  4 x31 + 4 x81 + 4 x131 + 4 x181 + 4 x231 - 11 x281 <= 0
 c82:  4 x32 + 4 x82 + 4 x132 + 4 x182 + 4 x232 - 10 x282 <= 0
 c83:  4 x33 + 4 x83 + 4 x133 + 4 x183 + 4 x233 - 9 x283 <= 0
 c84:  4 x34 + 4 x84 + 4 x134 + 4 x184 + 4 x234 - 9 x284 <= 0
 c85:  4 x35 + 4 x85 + 4 x135 + 4 x185 + 4 x235 - 10 x285 <= 0
 c86:  4 x36 + 4 x86 + 4 x136 + 4 x186 + 4 x236 - 10 x286 <= 0
 c87:  4 x37 + 4 x87 + 4 x137 + 4 x187 + 4 x237 - 10 x287 <= 0
 c88:  4 x38 + 4 x88 + 4 x138 + 4 x188 + 4 x238 - 11 x288 <= 0
 c89:  4 x39 + 4 x89 + 4 x139 + 4 x189 + 4 x239 - 9 x289 <= 0
 c90:  4 x40 + 4 x90 + 4 x140 + 4 x190 + 4 x240 - 10 x290 <= 0
 c91:  4 x41 + 4 x91 + 4 x141 + 4 x191 + 4 x241 - 10 x291 <= 0
 c92:  4 x42 + 4 x92 + 4 x142 + 4 x192 + 4 x242 - 11 x292 <= 0
 c93:  4 x43 + 4 x93 + 4 x143 + 4 x193 + 4 x243 - 10 x293 <= 0
 c94:  4 x44 + 4 x94 + 4 x144 + 4 x194 + 4 x244 - 9 x294 <= 0
 c95:  4 x45 + 4 x95 + 4 x145 + 4 x195 + 4 x245 - 10 x295 <= 0
 c96:  4 x46 + 4 x96 + 4 x146 + 4 x196 + 4 x246 - 9 x296 <= 0
 c97:  4 x47 + 4 x97 + 4 x147 + 4 x197 + 4 x247 - 10 x297 <= 0
 c98:  4 x48 + 4 x98 + 4 x148 + 4 x198 + 4 x248 - 10 x298 <= 0
 c99:  4 x49 + 4 x99 + 4 x149 + 4 x199 + 4 x249 - 9 x299 <= 0
 c100: 4 x50 + 4 x100 + 4 x150 + 4 x200 + 4 x250 - 7 x300 <= 0
Bounds
 0 <= x1 <= 1
 0 <= x2 <= 1
 0 <= x3 <= 1
 0 <= x4 <= 1
 0 <= x5 <= 1
 0 <= x6 <= 1
 0 <= x7 <= 1
 0 <= x8 <= 1
 0 <= x9 <= 1
 0 <= x10 <= 1
 0 <= x11 <= 1
 0 <= x12 <= 1
 0 <= x13 <= 1
 0 <= x14 <= 1
 0 <= x15 <= 1
 0 <= x16 <= 1
 0 <= x17 <= 1
 0 <= x18 <= 1
 0 <= x19 <= 1
 0 <= x20 <= 1
 0 <= x21 <= 1
 0 <= x22 <= 1
 0 <= x23 <= 1
 0 <= x24 <= 1
 0 <= x25 <= 1
 0 <= x26 <= 1
 0 <= x27 <= 1
 0 <= x28 <= 1
 0 <= x29 <= 1
 0 <= x30 <= 1
 0 <= x31 <= 1
 0 <= x32 <= 1
 0 <= x33 <= 1
 0 <= x34 <= 1
 0 <= x35 <= 1
 0 <= x36 <= 1
 0 <= x37 <= 1
 0 <= x38 <= 1
 0 <= x39 <= 1
 0 <= x40 <= 1
 0 <= x41 <= 1
 0 <= x42 <= 1
 0 <= x43 <= 1
 0 <= x44 <= 1
 0 <= x45 <= 1
 0 <= x46 <= 1
 0 <= x47 <= 1
 0 <= x48 <= 1
 0 <= x49 <= 1
 0 <= x50 <= 1
 0 <= x51 <= 1
 0 <= x52 <= 1
 0 <= x53 <= 1
 0 <= x54 <= 1
 0 <= x55 <= 1
 0 <= x56 <= 1
 0 <= x57 <= 1
 0 <= x58 <= 1
 0 <= x59 <= 1
 0 <= x60 <= 1
 0 <= x61 <= 1
 0 <= x62 <= 1
 0 <= x63 <= 1
 0 <= x64 <= 1
 0 <= x65 <= 1
 0 <= x66 <= 1
 0 <= x67 <= 1
 0 <= x68 <= 1
 0 <= x69 <= 1
 0 <= x70 <= 1
 0 <= x71 <= 1
 0 <= x72 <= 1
 0 <= x73 <= 1
 0 <= x74 <= 1
 0 <= x75 <= 1
 0 <= x76 <= 1
 0 <= x77 <= 1
 0 <= x78 <= 1
 0 <= x79 <= 1
 0 <= x80 <= 1
 0 <= x81 <= 1
 0 <= x82 <= 1
 0 <= x83 <= 1
 0 <= x84 <= 1
 0 <= x85 <= 1
 0 <= x86 <= 1
 0 <= x87 <= 1
 0 <= x88 <= 1
 0 <= x89 <= 1
 0 <= x90 <= 1
 0 <= x91 <= 1
 0 <= x92 <= 1
 0 <= x93 <= 1
 0 <= x94 <= 1
 0 <= x95 <= 1
 0 <= x96 <= 1
 0 <= x97 <= 1
 0 <= x98 <= 1
 0 <= x99 <= 1
 0 <= x100 <= 1
 0 <= x101 <= 1
 0 <= x102 <= 1
 0 <= x103 <= 1
 0 <= x104 <= 1
 0 <= x105 <= 1
 0 <= x106 <= 1
 0 <= x107 <= 1
 0 <= x108 <= 1
 0 <= x109 <= 1
 0 <= x110 <= 1
 0 <= x111 <= 1
 0 <= x112 <= 1
 0 <= x113 <= 1
 0 <= x114 <= 1
 0 <= x115 <= 1
 0 <= x116 <= 1
 0 <= x117 <= 1
 0 <= x118 <= 1
 0 <= x119 <= 1
 0 <= x120 <= 1
 0 <= x121 <= 1
 0 <= x122 <= 1
 0 <= x123 <= 1
 0 <= x124 <= 1
 0 <= x125 <= 1
 0 <= x126 <= 1
 0 <= x127 <= 1
 0 <= x128 <= 1
 0 <= x129 <= 1
 0 <= x130 <= 1
 0 <= x131 <= 1
 0 <= x132 <= 1
 0 <= x133 <= 1
 0 <= x134 <= 1
 0 <= x135 <= 1
 0 <= x136 <= 1
 0 <= x137 <= 1
 0 <= x138 <= 1
 0 <= x139 <= 1
 0 <= x140 <= 1
 0 <= x141 <= 1
 0 <= x142 <= 1
 0 <= x143 <= 1
 0 <= x144 <= 1
 0 <= x145 <= 1
 0 <= x146 <= 1
 0 <= x147 <= 1
 0 <= x148 <= 1
 0 <= x149 <= 1
 0 <= x150 <= 1
 0 <= x151 <= 1
 0 <= x152 <= 1
 0 <= x153 <= 1
 0 <= x154 <= 1
 0 <= x155 <= 1
 0 <= x156 <= 1
 0 <= x157 <= 1
 0 <= x158 <= 1
 0 <= x159 <= 1
 0 <= x160 <= 1
 0 <= x161 <= 1
 0 <= x162 <= 1
 0 <= x163 <= 1
 0 <= x164 <= 1
 0 <= x165 <= 1
 0 <= x166 <= 1
 0 <= x167 <= 1
 0 <= x168 <= 1
 0 <= x169 <= 1
 0 <= x170 <= 1
 0 <= x171 <= 1
 0 <= x172 <= 1
 0 <= x173 <= 1
 0 <= x174 <= 1
 0 <= x175 <= 1
 0 <= x176 <= 1
 0 <= x177 <= 1
 0 <= x178 <= 1
 0 <= x179 <= 1
 0 <= x180 <= 1
 0 <= x181 <= 1
 0 <= x182 <= 1
 0 <= x183 <= 1
 0 <= x184 <= 1
 0 <= x185 <= 1
 0 <= x186 <= 1
 0 <= x187 <= 1
 0 <= x188 <= 1
 0 <= x189 <= 1
 0 <= x190 <= 1
 0 <= x191 <= 1
 0 <= x192 <= 1
 0 <= x193 <= 1
 0 <= x194 <= 1
 0 <= x195 <= 1
 0 <= x196 <= 1
 0 <= x197 <= 1
 0 <= x198 <= 1
 0 <= x199 <= 1
 0 <= x200 <= 1
 0 <= x201 <= 1
 0 <= x202 <= 1
 0 <= x203 <= 1
 0 <= x204 <= 1
 0 <= x205 <= 1
 0 <= x206 <= 1
 0 <= x207 <= 1
 0 <= x208 <= 1
 0 <= x209 <= 1
 0 <= x210 <= 1
 0 <= x211 <= 1
 0 <= x212 <= 1
 0 <= x213 <= 1
 0 <= x214 <= 1
 0 <= x215 <= 1
 0 <= x216 <= 1
 0 <= x217 <= 1
 0 <= x218 <= 1
 0 <= x219 <= 1
 0 <= x220 <= 1
 0 <= x221 <= 1
 0 <= x222 <= 1
 0 <= x223 <= 1
 0 <= x224 <= 1
 0 <= x225 <= 1
 0 <= x226 <= 1
 0 <= x227 <= 1
 0 <= x228 <= 1
 0 <= x229 <= 1
 0 <= x230 <= 1
 0 <= x231 <= 1
 0 <= x232 <= 1
 0 <= x233 <= 1
 0 <= x234 <= 1
 0 <= x235 <= 1
 0 <= x236 <= 1
 0 <= x237 <= 1
 0 <= x238 <= 1
 0 <= x239 <= 1
 0 <= x240 <= 1
 0 <= x241 <= 1
 0 <= x242 <= 1
 0 <= x243 <= 1
 0 <= x244 <= 1
 0 <= x245 <= 1
 0 <= x246 <= 1
 0 <= x247 <= 1
 0 <= x248 <= 1
 0 <= x249 <= 1
 0 <= x250 <= 1
 0 <= x251 <= 1
 0 <= x252 <= 1
 0 <= x253 <= 1
 0 <= x254 <= 1
 0 <= x255 <= 1
 0 <= x256 <= 1
 0 <= x257 <= 1
 0 <= x258 <= 1
 0 <= x259 <= 1
 0 <= x260 <= 1
 0 <= x261 <= 1
 0 <= x262 <= 1
 0 <= x263 <= 1
 0 <= x264 <= 1
 0 <= x265 <= 1
 0 <= x266 <= 1
 0 <= x267 <= 1
 0 <= x268 <= 1
 0 <= x269 <= 1
 0 <= x270 <= 1
 0 <= x271 <= 1
 0 <= x272 <= 1
 0 <= x273 <= 1
 0 <= x274 <= 1
 0 <= x275 <= 1
 0 <= x276 <= 1
 0 <= x277 <= 1
 0 <= x278 <= 1
 0 <= x279 <= 1
 0 <= x280 <= 1
 0 <= x281 <= 1
 0 <= x282 <= 1
 0 <= x283 <= 1
 0 <= x284 <= 1
 0 <= x285 <= 1
 0 <= x286 <= 1
 0 <= x287 <= 1
 0 <= x288 <= 1
 0 <= x289 <= 1
 0 <= x290 <= 1
 0 <= x291 <= 1
 0 <= x292 <= 1
 0 <= x293 <= 1
 0 <= x294 <= 1
 0 <= x295 <= 1
 0 <= x296 <= 1
 0 <= x297 <= 1
 0 <= x298 <= 1
 0 <= x299 <= 1
 0 <= x300 <= 1
Binaries
 x251  x252  x253  x254  x255  x256  x257  x258  x259  x260  x261  x262  x263 
 x264  x265  x266  x267  x268  x269  x270  x271  x272  x273  x274  x275  x276 
 x277  x278  x279  x280  x281  x282  x283  x284  x285  x286  x287  x288  x289 
 x290  x291  x292  x293  x294  x295  x296  x297  x298  x299  x300 
End
